%chk=002
#p test hf 3-21g pop=full stable=opt

test

0  1
h
h   1   2.5

--link1--
%chk=002
#p test uhf 3-21g geom=allcheck guess=read
output=(mat,AO2ElectronIntegrals) int=noraff nosymm

002.mat

