%chk=003
#p test hf pop=full stable=opt

test

0  1
li
h   1   2.5

--link1--
%chk=003
#p test uhf geom=allcheck guess=read
output=(mat,AO2ElectronIntegrals) int=noraff nosymm

003.mat

